NAME: Li_27
COMMENT: 17488.74
TYPE: CVRP
DIMENSION: 841
CAPACITY: 900
DISTANCE: 900
EDGE_WEIGHT_TYPE: FUNCTION
EDGE_WEIGHT_FORMAT: EUC_2D
NODE_COORD_TYPE: TWOD_COORDS
NODE_COORD_SECTION
1 30.0000 0.0000
2 29.9161 2.2419
3 29.6649 4.4713
4 29.2478 6.6756
5 28.6672 8.8427
6 27.9262 10.9602
7 27.0291 13.0165
8 25.9808 15.0000
9 24.7872 16.8996
10 23.4549 18.7047
11 21.9916 20.4052
12 20.4052 21.9916
13 18.7047 23.4549
14 16.8996 24.7872
15 15.0000 25.9808
16 13.0165 27.0291
17 10.9602 27.9262
18 8.8427 28.6672
19 6.6756 29.2478
20 4.4713 29.6649
21 2.2419 29.9161
22 0.0000 30.0000
23 -2.2419 29.9161
24 -4.4713 29.6649
25 -6.6756 29.2478
26 -8.8427 28.6672
27 -10.9602 27.9262
28 -13.0165 27.0291
29 -15.0000 25.9808
30 -16.8996 24.7872
31 -18.7047 23.4549
32 -20.4052 21.9916
33 -21.9916 20.4052
34 -23.4549 18.7047
35 -24.7872 16.8996
36 -25.9808 15.0000
37 -27.0291 13.0165
38 -27.9262 10.9602
39 -28.6672 8.8427
40 -29.2478 6.6756
41 -29.6649 4.4713
42 -29.9161 2.2419
43 -30.0000 0.0000
44 -29.9161 -2.2419
45 -29.6649 -4.4713
46 -29.2478 -6.6756
47 -28.6672 -8.8427
48 -27.9262 -10.9602
49 -27.0291 -13.0165
50 -25.9808 -15.0000
51 -24.7872 -16.8996
52 -23.4549 -18.7047
53 -21.9916 -20.4052
54 -20.4052 -21.9916
55 -18.7047 -23.4549
56 -16.8996 -24.7872
57 -15.0000 -25.9808
58 -13.0165 -27.0291
59 -10.9602 -27.9262
60 -8.8427 -28.6672
61 -6.6756 -29.2478
62 -4.4713 -29.6649
63 -2.2419 -29.9161
64 -0.0000 -30.0000
65 2.2419 -29.9161
66 4.4713 -29.6649
67 6.6756 -29.2478
68 8.8427 -28.6672
69 10.9602 -27.9262
70 13.0165 -27.0291
71 15.0000 -25.9808
72 16.8996 -24.7872
73 18.7047 -23.4549
74 20.4052 -21.9916
75 21.9916 -20.4052
76 23.4549 -18.7047
77 24.7872 -16.8996
78 25.9808 -15.0000
79 27.0291 -13.0165
80 27.9262 -10.9602
81 28.6672 -8.8427
82 29.2478 -6.6756
83 29.6649 -4.4713
84 29.9161 -2.2419
85 60.0000 0.0000
86 59.8322 4.4838
87 59.3298 8.9425
88 58.4957 13.3513
89 57.3344 17.6853
90 55.8524 21.9205
91 54.0581 26.0330
92 51.9615 30.0000
93 49.5743 33.7992
94 46.9099 37.4094
95 43.9831 40.8104
96 40.8104 43.9831
97 37.4094 46.9099
98 33.7992 49.5743
99 30.0000 51.9615
100 26.0330 54.0581
101 21.9205 55.8524
102 17.6853 57.3344
103 13.3513 58.4957
104 8.9425 59.3298
105 4.4838 59.8322
106 0.0000 60.0000
107 -4.4838 59.8322
108 -8.9425 59.3298
109 -13.3513 58.4957
110 -17.6853 57.3344
111 -21.9205 55.8524
112 -26.0330 54.0581
113 -30.0000 51.9615
114 -33.7992 49.5743
115 -37.4094 46.9099
116 -40.8104 43.9831
117 -43.9831 40.8104
118 -46.9099 37.4094
119 -49.5743 33.7992
120 -51.9615 30.0000
121 -54.0581 26.0330
122 -55.8524 21.9205
123 -57.3344 17.6853
124 -58.4957 13.3513
125 -59.3298 8.9425
126 -59.8322 4.4838
127 -60.0000 0.0000
128 -59.8322 -4.4838
129 -59.3298 -8.9425
130 -58.4957 -13.3513
131 -57.3344 -17.6853
132 -55.8524 -21.9205
133 -54.0581 -26.0330
134 -51.9615 -30.0000
135 -49.5743 -33.7992
136 -46.9099 -37.4094
137 -43.9831 -40.8104
138 -40.8104 -43.9831
139 -37.4094 -46.9099
140 -33.7992 -49.5743
141 -30.0000 -51.9615
142 -26.0330 -54.0581
143 -21.9205 -55.8524
144 -17.6853 -57.3344
145 -13.3513 -58.4957
146 -8.9425 -59.3298
147 -4.4838 -59.8322
148 -0.0000 -60.0000
149 4.4838 -59.8322
150 8.9425 -59.3298
151 13.3513 -58.4957
152 17.6853 -57.3344
153 21.9205 -55.8524
154 26.0330 -54.0581
155 30.0000 -51.9615
156 33.7992 -49.5743
157 37.4094 -46.9099
158 40.8104 -43.9831
159 43.9831 -40.8104
160 46.9099 -37.4094
161 49.5743 -33.7992
162 51.9615 -30.0000
163 54.0581 -26.0330
164 55.8524 -21.9205
165 57.3344 -17.6853
166 58.4957 -13.3513
167 59.3298 -8.9425
168 59.8322 -4.4838
169 90.0000 0.0000
170 89.7483 6.7257
171 88.9948 13.4138
172 87.7435 20.0269
173 86.0016 26.5280
174 83.7786 32.8807
175 81.0872 39.0495
176 77.9423 45.0000
177 74.3615 50.6988
178 70.3648 56.1141
179 65.9747 61.2155
180 61.2155 65.9747
181 56.1141 70.3648
182 50.6988 74.3615
183 45.0000 77.9423
184 39.0495 81.0872
185 32.8807 83.7786
186 26.5280 86.0016
187 20.0269 87.7435
188 13.4138 88.9948
189 6.7257 89.7483
190 0.0000 90.0000
191 -6.7257 89.7483
192 -13.4138 88.9948
193 -20.0269 87.7435
194 -26.5280 86.0016
195 -32.8807 83.7786
196 -39.0495 81.0872
197 -45.0000 77.9423
198 -50.6988 74.3615
199 -56.1141 70.3648
200 -61.2155 65.9747
201 -65.9747 61.2155
202 -70.3648 56.1141
203 -74.3615 50.6988
204 -77.9423 45.0000
205 -81.0872 39.0495
206 -83.7786 32.8807
207 -86.0016 26.5280
208 -87.7435 20.0269
209 -88.9948 13.4138
210 -89.7483 6.7257
211 -90.0000 0.0000
212 -89.7483 -6.7257
213 -88.9948 -13.4138
214 -87.7435 -20.0269
215 -86.0016 -26.5280
216 -83.7786 -32.8807
217 -81.0872 -39.0495
218 -77.9423 -45.0000
219 -74.3615 -50.6988
220 -70.3648 -56.1141
221 -65.9747 -61.2155
222 -61.2155 -65.9747
223 -56.1141 -70.3648
224 -50.6988 -74.3615
225 -45.0000 -77.9423
226 -39.0495 -81.0872
227 -32.8807 -83.7786
228 -26.5280 -86.0016
229 -20.0269 -87.7435
230 -13.4138 -88.9948
231 -6.7257 -89.7483
232 -0.0000 -90.0000
233 6.7257 -89.7483
234 13.4138 -88.9948
235 20.0269 -87.7435
236 26.5280 -86.0016
237 32.8807 -83.7786
238 39.0495 -81.0872
239 45.0000 -77.9423
240 50.6988 -74.3615
241 56.1141 -70.3648
242 61.2155 -65.9747
243 65.9747 -61.2155
244 70.3648 -56.1141
245 74.3615 -50.6988
246 77.9423 -45.0000
247 81.0872 -39.0495
248 83.7786 -32.8807
249 86.0016 -26.5280
250 87.7435 -20.0269
251 88.9948 -13.4138
252 89.7483 -6.7257
253 120.0000 0.0000
254 119.6645 8.9676
255 118.6597 17.8851
256 116.9913 26.7025
257 114.6687 35.3706
258 111.7048 43.8409
259 108.1163 52.0660
260 103.9230 60.0000
261 99.1487 67.5984
262 93.8198 74.8188
263 87.9662 81.6207
264 81.6207 87.9662
265 74.8188 93.8198
266 67.5984 99.1487
267 60.0000 103.9230
268 52.0660 108.1163
269 43.8409 111.7048
270 35.3706 114.6687
271 26.7025 116.9913
272 17.8851 118.6597
273 8.9676 119.6645
274 0.0000 120.0000
275 -8.9676 119.6645
276 -17.8851 118.6597
277 -26.7025 116.9913
278 -35.3706 114.6687
279 -43.8409 111.7048
280 -52.0660 108.1163
281 -60.0000 103.9230
282 -67.5984 99.1487
283 -74.8188 93.8198
284 -81.6207 87.9662
285 -87.9662 81.6207
286 -93.8198 74.8188
287 -99.1487 67.5984
288 -103.9230 60.0000
289 -108.1163 52.0660
290 -111.7048 43.8409
291 -114.6687 35.3706
292 -116.9913 26.7025
293 -118.6597 17.8851
294 -119.6645 8.9676
295 -120.0000 0.0000
296 -119.6645 -8.9676
297 -118.6597 -17.8851
298 -116.9913 -26.7025
299 -114.6687 -35.3706
300 -111.7048 -43.8409
301 -108.1163 -52.0660
302 -103.9230 -60.0000
303 -99.1487 -67.5984
304 -93.8198 -74.8188
305 -87.9662 -81.6207
306 -81.6207 -87.9662
307 -74.8188 -93.8198
308 -67.5984 -99.1487
309 -60.0000 -103.9230
310 -52.0660 -108.1163
311 -43.8409 -111.7048
312 -35.3706 -114.6687
313 -26.7025 -116.9913
314 -17.8851 -118.6597
315 -8.9676 -119.6645
316 -0.0000 -120.0000
317 8.9676 -119.6645
318 17.8851 -118.6597
319 26.7025 -116.9913
320 35.3706 -114.6687
321 43.8409 -111.7048
322 52.0660 -108.1163
323 60.0000 -103.9230
324 67.5984 -99.1487
325 74.8188 -93.8198
326 81.6207 -87.9662
327 87.9662 -81.6207
328 93.8198 -74.8188
329 99.1487 -67.5984
330 103.9230 -60.0000
331 108.1163 -52.0660
332 111.7048 -43.8409
333 114.6687 -35.3706
334 116.9913 -26.7025
335 118.6597 -17.8851
336 119.6645 -8.9676
337 150.0000 0.0000
338 149.5806 11.2095
339 148.3246 22.3563
340 146.2392 33.3781
341 143.3359 44.2133
342 139.6311 54.8012
343 135.1453 65.0826
344 129.9038 75.0000
345 123.9358 84.4980
346 117.2747 93.5235
347 109.9578 102.0259
348 102.0259 109.9578
349 93.5235 117.2747
350 84.4980 123.9358
351 75.0000 129.9038
352 65.0826 135.1453
353 54.8012 139.6311
354 44.2133 143.3359
355 33.3781 146.2392
356 22.3563 148.3246
357 11.2095 149.5806
358 0.0000 150.0000
359 -11.2095 149.5806
360 -22.3563 148.3246
361 -33.3781 146.2392
362 -44.2133 143.3359
363 -54.8012 139.6311
364 -65.0826 135.1453
365 -75.0000 129.9038
366 -84.4980 123.9358
367 -93.5235 117.2747
368 -102.0259 109.9578
369 -109.9578 102.0259
370 -117.2747 93.5235
371 -123.9358 84.4980
372 -129.9038 75.0000
373 -135.1453 65.0826
374 -139.6311 54.8012
375 -143.3359 44.2133
376 -146.2392 33.3781
377 -148.3246 22.3563
378 -149.5806 11.2095
379 -150.0000 0.0000
380 -149.5806 -11.2095
381 -148.3246 -22.3563
382 -146.2392 -33.3781
383 -143.3359 -44.2133
384 -139.6311 -54.8012
385 -135.1453 -65.0826
386 -129.9038 -75.0000
387 -123.9358 -84.4980
388 -117.2747 -93.5235
389 -109.9578 -102.0259
390 -102.0259 -109.9578
391 -93.5235 -117.2747
392 -84.4980 -123.9358
393 -75.0000 -129.9038
394 -65.0826 -135.1453
395 -54.8012 -139.6311
396 -44.2133 -143.3359
397 -33.3781 -146.2392
398 -22.3563 -148.3246
399 -11.2095 -149.5806
400 -0.0000 -150.0000
401 11.2095 -149.5806
402 22.3563 -148.3246
403 33.3781 -146.2392
404 44.2133 -143.3359
405 54.8012 -139.6311
406 65.0826 -135.1453
407 75.0000 -129.9038
408 84.4980 -123.9358
409 93.5235 -117.2747
410 102.0259 -109.9578
411 109.9578 -102.0259
412 117.2747 -93.5235
413 123.9358 -84.4980
414 129.9038 -75.0000
415 135.1453 -65.0826
416 139.6311 -54.8012
417 143.3359 -44.2133
418 146.2392 -33.3781
419 148.3246 -22.3563
420 149.5806 -11.2095
421 180.0000 0.0000
422 179.4967 13.4514
423 177.9895 26.8276
424 175.4870 40.0538
425 172.0031 53.0559
426 167.5573 65.7614
427 162.1744 78.0991
428 155.8846 90.0000
429 148.7230 101.3976
430 140.7297 112.2282
431 131.9493 122.4311
432 122.4311 131.9493
433 112.2282 140.7297
434 101.3976 148.7230
435 90.0000 155.8846
436 78.0991 162.1744
437 65.7614 167.5573
438 53.0559 172.0031
439 40.0538 175.4870
440 26.8276 177.9895
441 13.4514 179.4967
442 0.0000 180.0000
443 -13.4514 179.4967
444 -26.8276 177.9895
445 -40.0538 175.4870
446 -53.0559 172.0031
447 -65.7614 167.5573
448 -78.0991 162.1744
449 -90.0000 155.8846
450 -101.3976 148.7230
451 -112.2282 140.7297
452 -122.4311 131.9493
453 -131.9493 122.4311
454 -140.7297 112.2282
455 -148.7230 101.3976
456 -155.8846 90.0000
457 -162.1744 78.0991
458 -167.5573 65.7614
459 -172.0031 53.0559
460 -175.4870 40.0538
461 -177.9895 26.8276
462 -179.4967 13.4514
463 -180.0000 0.0000
464 -179.4967 -13.4514
465 -177.9895 -26.8276
466 -175.4870 -40.0538
467 -172.0031 -53.0559
468 -167.5573 -65.7614
469 -162.1744 -78.0991
470 -155.8846 -90.0000
471 -148.7230 -101.3976
472 -140.7297 -112.2282
473 -131.9493 -122.4311
474 -122.4311 -131.9493
475 -112.2282 -140.7297
476 -101.3976 -148.7230
477 -90.0000 -155.8846
478 -78.0991 -162.1744
479 -65.7614 -167.5573
480 -53.0559 -172.0031
481 -40.0538 -175.4870
482 -26.8276 -177.9895
483 -13.4514 -179.4967
484 -0.0000 -180.0000
485 13.4514 -179.4967
486 26.8276 -177.9895
487 40.0538 -175.4870
488 53.0559 -172.0031
489 65.7614 -167.5573
490 78.0991 -162.1744
491 90.0000 -155.8846
492 101.3976 -148.7230
493 112.2282 -140.7297
494 122.4311 -131.9493
495 131.9493 -122.4311
496 140.7297 -112.2282
497 148.7230 -101.3976
498 155.8846 -90.0000
499 162.1744 -78.0991
500 167.5573 -65.7614
501 172.0031 -53.0559
502 175.4870 -40.0538
503 177.9895 -26.8276
504 179.4967 -13.4514
505 210.0000 0.0000
506 209.4128 15.6933
507 207.6545 31.2989
508 204.7349 46.7294
509 200.6703 61.8986
510 195.4835 76.7216
511 189.2035 91.1156
512 181.8653 105.0000
513 173.5101 118.2972
514 164.1846 130.9329
515 153.9409 142.8363
516 142.8363 153.9409
517 130.9329 164.1846
518 118.2972 173.5101
519 105.0000 181.8653
520 91.1156 189.2035
521 76.7216 195.4835
522 61.8986 200.6703
523 46.7294 204.7349
524 31.2989 207.6545
525 15.6933 209.4128
526 0.0000 210.0000
527 -15.6933 209.4128
528 -31.2989 207.6545
529 -46.7294 204.7349
530 -61.8986 200.6703
531 -76.7216 195.4835
532 -91.1156 189.2035
533 -105.0000 181.8653
534 -118.2972 173.5101
535 -130.9329 164.1846
536 -142.8363 153.9409
537 -153.9409 142.8363
538 -164.1846 130.9329
539 -173.5101 118.2972
540 -181.8653 105.0000
541 -189.2035 91.1156
542 -195.4835 76.7216
543 -200.6703 61.8986
544 -204.7349 46.7294
545 -207.6545 31.2989
546 -209.4128 15.6933
547 -210.0000 0.0000
548 -209.4128 -15.6933
549 -207.6545 -31.2989
550 -204.7349 -46.7294
551 -200.6703 -61.8986
552 -195.4835 -76.7216
553 -189.2035 -91.1156
554 -181.8653 -105.0000
555 -173.5101 -118.2972
556 -164.1846 -130.9329
557 -153.9409 -142.8363
558 -142.8363 -153.9409
559 -130.9329 -164.1846
560 -118.2972 -173.5101
561 -105.0000 -181.8653
562 -91.1156 -189.2035
563 -76.7216 -195.4835
564 -61.8986 -200.6703
565 -46.7294 -204.7349
566 -31.2989 -207.6545
567 -15.6933 -209.4128
568 -0.0000 -210.0000
569 15.6933 -209.4128
570 31.2989 -207.6545
571 46.7294 -204.7349
572 61.8986 -200.6703
573 76.7216 -195.4835
574 91.1156 -189.2035
575 105.0000 -181.8653
576 118.2972 -173.5101
577 130.9329 -164.1846
578 142.8363 -153.9409
579 153.9409 -142.8363
580 164.1846 -130.9329
581 173.5101 -118.2972
582 181.8653 -105.0000
583 189.2035 -91.1156
584 195.4835 -76.7216
585 200.6703 -61.8986
586 204.7349 -46.7294
587 207.6545 -31.2989
588 209.4128 -15.6933
589 240.0000 0.0000
590 239.3289 17.9352
591 237.3194 35.7701
592 233.9827 53.4050
593 229.3375 70.7412
594 223.4097 87.6818
595 216.2325 104.1321
596 207.8461 120.0000
597 198.2973 135.1968
598 187.6396 149.6376
599 175.9324 163.2415
600 163.2415 175.9324
601 149.6376 187.6396
602 135.1968 198.2973
603 120.0000 207.8461
604 104.1321 216.2325
605 87.6818 223.4097
606 70.7412 229.3375
607 53.4050 233.9827
608 35.7701 237.3194
609 17.9352 239.3289
610 0.0000 240.0000
611 -17.9352 239.3289
612 -35.7701 237.3194
613 -53.4050 233.9827
614 -70.7412 229.3375
615 -87.6818 223.4097
616 -104.1321 216.2325
617 -120.0000 207.8461
618 -135.1968 198.2973
619 -149.6376 187.6396
620 -163.2415 175.9324
621 -175.9324 163.2415
622 -187.6396 149.6376
623 -198.2973 135.1968
624 -207.8461 120.0000
625 -216.2325 104.1321
626 -223.4097 87.6818
627 -229.3375 70.7412
628 -233.9827 53.4050
629 -237.3194 35.7701
630 -239.3289 17.9352
631 -240.0000 0.0000
632 -239.3289 -17.9352
633 -237.3194 -35.7701
634 -233.9827 -53.4050
635 -229.3375 -70.7412
636 -223.4097 -87.6818
637 -216.2325 -104.1321
638 -207.8461 -120.0000
639 -198.2973 -135.1968
640 -187.6396 -149.6376
641 -175.9324 -163.2415
642 -163.2415 -175.9324
643 -149.6376 -187.6396
644 -135.1968 -198.2973
645 -120.0000 -207.8461
646 -104.1321 -216.2325
647 -87.6818 -223.4097
648 -70.7412 -229.3375
649 -53.4050 -233.9827
650 -35.7701 -237.3194
651 -17.9352 -239.3289
652 -0.0000 -240.0000
653 17.9352 -239.3289
654 35.7701 -237.3194
655 53.4050 -233.9827
656 70.7412 -229.3375
657 87.6818 -223.4097
658 104.1321 -216.2325
659 120.0000 -207.8461
660 135.1968 -198.2973
661 149.6376 -187.6396
662 163.2415 -175.9324
663 175.9324 -163.2415
664 187.6396 -149.6376
665 198.2973 -135.1968
666 207.8461 -120.0000
667 216.2325 -104.1321
668 223.4097 -87.6818
669 229.3375 -70.7412
670 233.9827 -53.4050
671 237.3194 -35.7701
672 239.3289 -17.9352
673 270.0000 0.0000
674 269.2450 20.1771
675 266.9843 40.2414
676 263.2305 60.0807
677 258.0047 79.5839
678 251.3359 98.6421
679 243.2616 117.1486
680 233.8269 135.0000
681 223.0845 152.0964
682 211.0945 168.3422
683 197.9240 183.6466
684 183.6466 197.9240
685 168.3422 211.0945
686 152.0964 223.0845
687 135.0000 233.8269
688 117.1486 243.2616
689 98.6421 251.3359
690 79.5839 258.0047
691 60.0807 263.2305
692 40.2414 266.9843
693 20.1771 269.2450
694 0.0000 270.0000
695 -20.1771 269.2450
696 -40.2414 266.9843
697 -60.0807 263.2305
698 -79.5839 258.0047
699 -98.6421 251.3359
700 -117.1486 243.2616
701 -135.0000 233.8269
702 -152.0964 223.0845
703 -168.3422 211.0945
704 -183.6466 197.9240
705 -197.9240 183.6466
706 -211.0945 168.3422
707 -223.0845 152.0964
708 -233.8269 135.0000
709 -243.2616 117.1486
710 -251.3359 98.6421
711 -258.0047 79.5839
712 -263.2305 60.0807
713 -266.9843 40.2414
714 -269.2450 20.1771
715 -270.0000 0.0000
716 -269.2450 -20.1771
717 -266.9843 -40.2414
718 -263.2305 -60.0807
719 -258.0047 -79.5839
720 -251.3359 -98.6421
721 -243.2616 -117.1486
722 -233.8269 -135.0000
723 -223.0845 -152.0964
724 -211.0945 -168.3422
725 -197.9240 -183.6466
726 -183.6466 -197.9240
727 -168.3422 -211.0945
728 -152.0964 -223.0845
729 -135.0000 -233.8269
730 -117.1486 -243.2616
731 -98.6421 -251.3359
732 -79.5839 -258.0047
733 -60.0807 -263.2305
734 -40.2414 -266.9843
735 -20.1771 -269.2450
736 -0.0000 -270.0000
737 20.1771 -269.2450
738 40.2414 -266.9843
739 60.0807 -263.2305
740 79.5839 -258.0047
741 98.6421 -251.3359
742 117.1486 -243.2616
743 135.0000 -233.8269
744 152.0964 -223.0845
745 168.3422 -211.0945
746 183.6466 -197.9240
747 197.9240 -183.6466
748 211.0945 -168.3422
749 223.0845 -152.0964
750 233.8269 -135.0000
751 243.2616 -117.1486
752 251.3359 -98.6421
753 258.0047 -79.5839
754 263.2305 -60.0807
755 266.9843 -40.2414
756 269.2450 -20.1771
757 300.0000 0.0000
758 299.1611 22.4190
759 296.6492 44.7127
760 292.4784 66.7563
761 286.6718 88.4266
762 279.2621 109.6023
763 270.2907 130.1651
764 259.8076 150.0000
765 247.8716 168.9960
766 234.5494 187.0469
767 219.9156 204.0518
768 204.0518 219.9156
769 187.0469 234.5494
770 168.9960 247.8716
771 150.0000 259.8076
772 130.1651 270.2907
773 109.6023 279.2621
774 88.4266 286.6718
775 66.7563 292.4784
776 44.7127 296.6492
777 22.4190 299.1611
778 0.0000 300.0000
779 -22.4190 299.1611
780 -44.7127 296.6492
781 -66.7563 292.4784
782 -88.4266 286.6718
783 -109.6023 279.2621
784 -130.1651 270.2907
785 -150.0000 259.8076
786 -168.9960 247.8716
787 -187.0469 234.5494
788 -204.0518 219.9156
789 -219.9156 204.0518
790 -234.5494 187.0469
791 -247.8716 168.9960
792 -259.8076 150.0000
793 -270.2907 130.1651
794 -279.2621 109.6023
795 -286.6718 88.4266
796 -292.4784 66.7563
797 -296.6492 44.7127
798 -299.1611 22.4190
799 -300.0000 0.0000
800 -299.1611 -22.4190
801 -296.6492 -44.7127
802 -292.4784 -66.7563
803 -286.6718 -88.4266
804 -279.2621 -109.6023
805 -270.2907 -130.1651
806 -259.8076 -150.0000
807 -247.8716 -168.9960
808 -234.5494 -187.0469
809 -219.9156 -204.0518
810 -204.0518 -219.9156
811 -187.0469 -234.5494
812 -168.9960 -247.8716
813 -150.0000 -259.8076
814 -130.1651 -270.2907
815 -109.6023 -279.2621
816 -88.4266 -286.6718
817 -66.7563 -292.4784
818 -44.7127 -296.6492
819 -22.4190 -299.1611
820 -0.0000 -300.0000
821 22.4190 -299.1611
822 44.7127 -296.6492
823 66.7563 -292.4784
824 88.4266 -286.6718
825 109.6023 -279.2621
826 130.1651 -270.2907
827 150.0000 -259.8076
828 168.9960 -247.8716
829 187.0469 -234.5494
830 204.0518 -219.9156
831 219.9156 -204.0518
832 234.5494 -187.0469
833 247.8716 -168.9960
834 259.8076 -150.0000
835 270.2907 -130.1651
836 279.2621 -109.6023
837 286.6718 -88.4266
838 292.4784 -66.7563
839 296.6492 -44.7127
840 299.1611 -22.4190
DEMAND_SECTION
1 10
2 30
3 30
4 10
5 10
6 30
7 30
8 10
9 10
10 30
11 30
12 10
13 10
14 30
15 30
16 10
17 10
18 30
19 30
20 10
21 10
22 30
23 30
24 10
25 10
26 30
27 30
28 10
29 10
30 30
31 30
32 10
33 10
34 30
35 30
36 10
37 10
38 30
39 30
40 10
41 10
42 30
43 30
44 10
45 10
46 30
47 30
48 10
49 10
50 30
51 30
52 10
53 10
54 30
55 30
56 10
57 10
58 30
59 30
60 10
61 10
62 30
63 30
64 10
65 10
66 30
67 30
68 10
69 10
70 30
71 30
72 10
73 10
74 30
75 30
76 10
77 10
78 30
79 30
80 10
81 10
82 30
83 30
84 10
85 10
86 30
87 30
88 10
89 10
90 30
91 30
92 10
93 10
94 30
95 30
96 10
97 10
98 30
99 30
100 10
101 10
102 30
103 30
104 10
105 10
106 30
107 30
108 10
109 10
110 30
111 30
112 10
113 10
114 30
115 30
116 10
117 10
118 30
119 30
120 10
121 10
122 30
123 30
124 10
125 10
126 30
127 30
128 10
129 10
130 30
131 30
132 10
133 10
134 30
135 30
136 10
137 10
138 30
139 30
140 10
141 10
142 30
143 30
144 10
145 10
146 30
147 30
148 10
149 10
150 30
151 30
152 10
153 10
154 30
155 30
156 10
157 10
158 30
159 30
160 10
161 10
162 30
163 30
164 10
165 10
166 30
167 30
168 10
169 10
170 30
171 30
172 10
173 10
174 30
175 30
176 10
177 10
178 30
179 30
180 10
181 10
182 30
183 30
184 10
185 10
186 30
187 30
188 10
189 10
190 30
191 30
192 10
193 10
194 30
195 30
196 10
197 10
198 30
199 30
200 10
201 10
202 30
203 30
204 10
205 10
206 30
207 30
208 10
209 10
210 30
211 30
212 10
213 10
214 30
215 30
216 10
217 10
218 30
219 30
220 10
221 10
222 30
223 30
224 10
225 10
226 30
227 30
228 10
229 10
230 30
231 30
232 10
233 10
234 30
235 30
236 10
237 10
238 30
239 30
240 10
241 10
242 30
243 30
244 10
245 10
246 30
247 30
248 10
249 10
250 30
251 30
252 10
253 10
254 30
255 30
256 10
257 10
258 30
259 30
260 10
261 10
262 30
263 30
264 10
265 10
266 30
267 30
268 10
269 10
270 30
271 30
272 10
273 10
274 30
275 30
276 10
277 10
278 30
279 30
280 10
281 10
282 30
283 30
284 10
285 10
286 30
287 30
288 10
289 10
290 30
291 30
292 10
293 10
294 30
295 30
296 10
297 10
298 30
299 30
300 10
301 10
302 30
303 30
304 10
305 10
306 30
307 30
308 10
309 10
310 30
311 30
312 10
313 10
314 30
315 30
316 10
317 10
318 30
319 30
320 10
321 10
322 30
323 30
324 10
325 10
326 30
327 30
328 10
329 10
330 30
331 30
332 10
333 10
334 30
335 30
336 10
337 10
338 30
339 30
340 10
341 10
342 30
343 30
344 10
345 10
346 30
347 30
348 10
349 10
350 30
351 30
352 10
353 10
354 30
355 30
356 10
357 10
358 30
359 30
360 10
361 10
362 30
363 30
364 10
365 10
366 30
367 30
368 10
369 10
370 30
371 30
372 10
373 10
374 30
375 30
376 10
377 10
378 30
379 30
380 10
381 10
382 30
383 30
384 10
385 10
386 30
387 30
388 10
389 10
390 30
391 30
392 10
393 10
394 30
395 30
396 10
397 10
398 30
399 30
400 10
401 10
402 30
403 30
404 10
405 10
406 30
407 30
408 10
409 10
410 30
411 30
412 10
413 10
414 30
415 30
416 10
417 10
418 30
419 30
420 10
421 10
422 30
423 30
424 10
425 10
426 30
427 30
428 10
429 10
430 30
431 30
432 10
433 10
434 30
435 30
436 10
437 10
438 30
439 30
440 10
441 10
442 30
443 30
444 10
445 10
446 30
447 30
448 10
449 10
450 30
451 30
452 10
453 10
454 30
455 30
456 10
457 10
458 30
459 30
460 10
461 10
462 30
463 30
464 10
465 10
466 30
467 30
468 10
469 10
470 30
471 30
472 10
473 10
474 30
475 30
476 10
477 10
478 30
479 30
480 10
481 10
482 30
483 30
484 10
485 10
486 30
487 30
488 10
489 10
490 30
491 30
492 10
493 10
494 30
495 30
496 10
497 10
498 30
499 30
500 10
501 10
502 30
503 30
504 10
505 10
506 30
507 30
508 10
509 10
510 30
511 30
512 10
513 10
514 30
515 30
516 10
517 10
518 30
519 30
520 10
521 10
522 30
523 30
524 10
525 10
526 30
527 30
528 10
529 10
530 30
531 30
532 10
533 10
534 30
535 30
536 10
537 10
538 30
539 30
540 10
541 10
542 30
543 30
544 10
545 10
546 30
547 30
548 10
549 10
550 30
551 30
552 10
553 10
554 30
555 30
556 10
557 10
558 30
559 30
560 10
561 10
562 30
563 30
564 10
565 10
566 30
567 30
568 10
569 10
570 30
571 30
572 10
573 10
574 30
575 30
576 10
577 10
578 30
579 30
580 10
581 10
582 30
583 30
584 10
585 10
586 30
587 30
588 10
589 10
590 30
591 30
592 10
593 10
594 30
595 30
596 10
597 10
598 30
599 30
600 10
601 10
602 30
603 30
604 10
605 10
606 30
607 30
608 10
609 10
610 30
611 30
612 10
613 10
614 30
615 30
616 10
617 10
618 30
619 30
620 10
621 10
622 30
623 30
624 10
625 10
626 30
627 30
628 10
629 10
630 30
631 30
632 10
633 10
634 30
635 30
636 10
637 10
638 30
639 30
640 10
641 10
642 30
643 30
644 10
645 10
646 30
647 30
648 10
649 10
650 30
651 30
652 10
653 10
654 30
655 30
656 10
657 10
658 30
659 30
660 10
661 10
662 30
663 30
664 10
665 10
666 30
667 30
668 10
669 10
670 30
671 30
672 10
673 10
674 30
675 30
676 10
677 10
678 30
679 30
680 10
681 10
682 30
683 30
684 10
685 10
686 30
687 30
688 10
689 10
690 30
691 30
692 10
693 10
694 30
695 30
696 10
697 10
698 30
699 30
700 10
701 10
702 30
703 30
704 10
705 10
706 30
707 30
708 10
709 10
710 30
711 30
712 10
713 10
714 30
715 30
716 10
717 10
718 30
719 30
720 10
721 10
722 30
723 30
724 10
725 10
726 30
727 30
728 10
729 10
730 30
731 30
732 10
733 10
734 30
735 30
736 10
737 10
738 30
739 30
740 10
741 10
742 30
743 30
744 10
745 10
746 30
747 30
748 10
749 10
750 30
751 30
752 10
753 10
754 30
755 30
756 10
757 10
758 30
759 30
760 10
761 10
762 30
763 30
764 10
765 10
766 30
767 30
768 10
769 10
770 30
771 30
772 10
773 10
774 30
775 30
776 10
777 10
778 30
779 30
780 10
781 10
782 30
783 30
784 10
785 10
786 30
787 30
788 10
789 10
790 30
791 30
792 10
793 10
794 30
795 30
796 10
797 10
798 30
799 30
800 10
801 10
802 30
803 30
804 10
805 10
806 30
807 30
808 10
809 10
810 30
811 30
812 10
813 10
814 30
815 30
816 10
817 10
818 30
819 30
820 10
821 10
822 30
823 30
824 10
825 10
826 30
827 30
828 10
829 10
830 30
831 30
832 10
833 10
834 30
835 30
836 10
837 10
838 30
839 30
840 10
DEPOT_SECTION
0.0000 0.0000
-1
EOF
